* Signature: 0xc74b9922ad9458f7
NAME lp_typeE_278
OBJSENSE MAX
ROWS
 N  OBJ
 L  c0      
 G  c1      
 G  c2      
 L  c_key_upper
 G  c_key_lower
 L  _multi_constr_upper_x0_x1
 G  _multi_constr_lower_x0_x1
COLUMNS
    x0        OBJ       1.3219547198672119e+00
    x0        c0        9.1031195827625766e-01
    x0        c1        1.7948349492477176e+00
    x0        c2        1.9419612175164311e+00
    x0        c_key_upper  1.6428042247955039e+00
    x0        c_key_lower  1.6428042247955039e+00
    x0        _multi_constr_upper_x0_x1  1
    x0        _multi_constr_lower_x0_x1  1
    x1        OBJ       1.4231866543154261e+00
    x1        c0        1.30006501941083
    x1        c1        1.7995449490666040e+00
    x1        c2        1.62822619026909
    x1        c_key_upper  1.6221961681224610e+00
    x1        c_key_lower  1.6221961681224610e+00
    x1        _multi_constr_upper_x0_x1  1
    x1        _multi_constr_lower_x0_x1  1
    x2        OBJ       1.1730779523057369e+00
    x2        c0        0.979637526935969
    x2        c1        1.6133910871485437e+00
    x2        c2        9.3841051581113555e-01
    x2        c_key_upper  1.5184671338082363e+00
    x2        c_key_lower  1.5184671338082363e+00
    x3        OBJ       1.4354109025530817e+00
    x3        c0        1.7665062398237474e+00
    x3        c1        1.6584215125897837e+00
    x3        c2        1.8086002833715338e+00
    x3        c_key_upper  1.2997049637032569e+00
    x3        c_key_lower  1.2997049637032569e+00
    x4        OBJ       1.3287412756359833e+00
    x4        c0        1.9287102347395191e+00
    x4        c1        1.0996284382937644e+00
    x4        c2        8.7259039134297245e-01
    x4        c_key_upper  1.3824190540664982e+00
    x4        c_key_lower  1.3824190540664982e+00
RHS
    RHS1      c0        4.0873607941789210e+01
    RHS1      c1        9.48436793769608
    RHS1      c2        1.2590604306878612e+01
    RHS1      c_key_upper  3.7327957722479781e+01
    RHS1      c_key_lower  1.8663978861239890e+01
    RHS1      _multi_constr_upper_x0_x1  9.7200802478449368e+00
    RHS1      _multi_constr_lower_x0_x1  1.1880098080699366e+01
BOUNDS
 UP BND1      x0        10
 UP BND1      x1        10
 UP BND1      x2        10
 UP BND1      x3        10
 UP BND1      x4        10
ENDATA
